\ File written by HiGHS .lp file handler
min
 obj: +28.2809709045947 x1 +15.8937392206368 x2 +17.3951922771499 x3 +10.9866801926339 x4 +18.6959687364735 x5 +1 x6 +9.63630500369318 x7 +14.5796764538529 x8 +12.1580686895913 x9 +2.90316361777785 x10 +5.62706042414954 x11 +0.0203555684231741 x12 +0.108840052294634 x13 +0.0795027248077464 x14 +0.211856096570268 x15 +0.00455608197982186 x16 +0.162660442312324 x17 +2.47170890115153 x18 +5.9904976243109 x19 +1.42888879189863 x20 +1.6337459041889 x21 +10.3867428067079 x22 +9.30240438380391 x23 +9.63731142349416 x24 +12.3263282890554 x25 +1.29981236304455
 x26 +1.00621775953272 x27 
st
 con1lo: +1 x1 +2 x7 +1 x8 +1 x9 +2 x10 +2 x11 +2 x18 >= +0
 con1up: +1 x1 +2 x7 +1 x8 +1 x9 +2 x10 +2 x11 +2 x18 <= +4
 con2lo: +1 x2 +4 x12 +1 x16 +3 x17 +1 x22 +2 x26 >= +0
 con2up: +1 x2 +4 x12 +1 x16 +3 x17 +1 x22 +2 x26 <= +4
 con3lo: +1 x3 +3 x15 +2 x20 +1 x24 >= +0
 con3up: +1 x3 +3 x15 +2 x20 +1 x24 <= +4
 con4lo: +1 x4 +3 x13 +4 x16 +2 x21 +1 x23 +1 x25 +2 x27 >= +0
 con4up: +1 x4 +3 x13 +4 x16 +2 x21 +1 x23 +1 x25 +2 x27 <= +4
 con5lo: +1 x5 +3 x14 +1 x19 >= +0
 con5up: +1 x5 +3 x14 +1 x19 <= +4
 con6lo: +1 x1 +1 x2 +1 x3 +1 x4 +1 x5 +2 x7 +1 x8 +1 x9 +2 x10 +2 x11 +4 x12 +3 x13 +3 x14 +3 x15 +5 x16 +3 x17 +2 x18 +1 x19 +2 x20 +2 x21 +1 x22 +1 x23 +1 x24 +1 x25 +2 x26 +2 x27 >= +0
 con6up: +1 x1 +1 x2 +1 x3 +1 x4 +1 x5 +2 x7 +1 x8 +1 x9 +2 x10 +2 x11 +4 x12 +3 x13 +3 x14 +3 x15 +5 x16 +3 x17 +2 x18 +1 x19 +2 x20 +2 x21 +1 x22 +1 x23 +1 x24 +1 x25 +2 x26 +2 x27 <= +8
 con7lo: +0.4017004801434 x1 -1 x6 >= -10000000000
 con7up: +0.4017004801434 x1 -1 x6 <= +0
 con8lo: +0.227442299820223 x2 -1 x6 >= -10000000000
 con8up: +0.227442299820223 x2 -1 x6 <= +0
 con9lo: +0.561639154963959 x3 -1 x6 >= -10000000000
 con9up: +0.561639154963959 x3 -1 x6 <= +0
 con10lo: +0.46020575988116 x4 -1 x6 >= -10000000000
 con10up: +0.46020575988116 x4 -1 x6 <= +0
 con11lo: +0.901209342294004 x5 -1 x6 >= -10000000000
 con11up: +0.901209342294004 x5 -1 x6 <= +0
 con12: +1 x1 +1 x7 +1 x12 +1 x17 +1 x22 +1 x26 = +1
 con13: +1 x2 +1 x8 +1 x13 +1 x18 +1 x23 +1 x27 = +1
 con14: +1 x3 +1 x9 +1 x14 +1 x19 = +1
 con15: +1 x4 +1 x10 +1 x15 +1 x20 +1 x24 = +1
 con16: +1 x5 +1 x11 +1 x16 +1 x21 +1 x25 = +1
bounds
 0 <= x1 <= 1
 0 <= x2 <= 1
 0 <= x3 <= 1
 0 <= x4 <= 1
 0 <= x5 <= 1
 0 <= x6 <= 10000000000
 0 <= x7 <= 4
 0 <= x8 <= 4
 0 <= x9 <= 4
 0 <= x10 <= 4
 0 <= x11 <= 4
 0 <= x12 <= 4
 0 <= x13 <= 4
 0 <= x14 <= 4
 0 <= x15 <= 4
 0 <= x16 <= 4
 0 <= x17 <= 4
 0 <= x18 <= 4
 0 <= x19 <= 4
 0 <= x20 <= 4
 0 <= x21 <= 4
 0 <= x22 <= 4
 0 <= x23 <= 4
 0 <= x24 <= 4
 0 <= x25 <= 4
 0 <= x26 <= 4
 0 <= x27 <= 4
end
